c Generated map
c Size: 8 * 8, weights in range: 1 to 10, walls: True, with ratio 0.05
c dim 6 of 8
c
p sp 64 101
c graph contains 64 nodes and 101 arcs
c
a 1 9 5
a 9 1 5
a 1 2 8
a 2 1 8
a 2 10 5
a 10 2 5
a 2 3 1
a 3 2 1
a 3 11 3
a 11 3 3
a 3 4 4
a 4 3 4
a 4 12 2
a 12 4 2
a 4 5 8
a 5 4 8
a 5 13 5
a 13 5 5
a 5 6 3
a 6 5 3
a 6 14 6
a 14 6 6
a 6 7 9
a 7 6 9
a 7 15 9
a 15 7 9
a 7 8 5
a 8 7 5
a 8 16 5
a 16 8 5
a 9 17 8
a 17 9 8
a 9 10 6
a 10 9 6
a 10 18 9
a 18 10 9
a 10 11 5
a 11 10 5
a 11 19 5
a 19 11 5
a 11 12 6
a 12 11 6
a 12 20 10
a 20 12 10
a 12 13 4
a 13 12 4
a 13 21 6
a 21 13 6
a 13 14 7
a 14 13 7
a 14 22 3
a 22 14 3
a 14 15 10
a 15 14 10
a 15 23 3
a 23 15 3
a 15 16 7
a 16 15 7
a 16 24 8
a 24 16 8
a 17 25 9
a 25 17 9
a 17 18 3
a 18 17 3
a 18 26 7
a 26 18 7
a 18 19 8
a 19 18 8
a 19 27 10
a 27 19 10
a 19 20 8
a 20 19 8
a 20 28 6
a 28 20 6
a 20 21 8
a 21 20 8
a 21 29 3
a 29 21 3
a 21 22 9
a 22 21 9
a 22 30 6
a 30 22 6
a 22 23 7
a 23 22 7
a 23 31 3
a 31 23 3
a 23 24 4
a 24 23 4
a 24 32 5
a 32 24 5
a 25 33 2
a 33 25 2
a 25 26 9
a 26 25 9
a 26 34 5
a 34 26 5
a 26 27 1
a 27 26 1
a 27 35 7
a 35 27 7
a 27 28 10
a 28 27 10
a 28 36 8
a 36 28 8
a 28 29 10
a 29 28 10
a 29 37 7
a 37 29 7
a 29 30 2
a 30 29 2
a 30 31 3
a 31 30 3
a 31 32 2
a 32 31 2
a 32 40 2
a 40 32 2
a 33 41 8
a 41 33 8
a 33 34 5
a 34 33 5
a 34 42 2
a 42 34 2
a 34 35 1
a 35 34 1
a 35 43 1
a 43 35 1
a 35 36 3
a 36 35 3
a 36 44 9
a 44 36 9
a 36 37 1
a 37 36 1
a 37 45 8
a 45 37 8
a 40 48 8
a 48 40 8
a 41 49 8
a 49 41 8
a 41 42 8
a 42 41 8
a 42 50 4
a 50 42 4
a 42 43 3
a 43 42 3
a 43 51 10
a 51 43 10
a 43 44 2
a 44 43 2
a 44 52 1
a 52 44 1
a 44 45 4
a 45 44 4
a 45 53 1
a 53 45 1
a 45 46 2
a 46 45 2
a 46 47 7
a 47 46 7
a 47 55 1
a 55 47 1
a 47 48 6
a 48 47 6
a 48 56 5
a 56 48 5
a 49 57 1
a 57 49 1
a 49 50 2
a 50 49 2
a 50 58 5
a 58 50 5
a 50 51 10
a 51 50 10
a 51 59 6
a 59 51 6
a 51 52 7
a 52 51 7
a 52 60 9
a 60 52 9
a 52 53 5
a 53 52 5
a 53 61 3
a 61 53 3
a 55 63 3
a 63 55 3
a 55 56 4
a 56 55 4
a 56 64 7
a 64 56 7
a 57 58 7
a 58 57 7
a 58 59 8
a 59 58 8
a 59 60 2
a 60 59 2
a 60 61 9
a 61 60 9
a 61 62 10
a 62 61 10
a 62 63 2
a 63 62 2
a 63 64 10
a 64 63 10
